minizinc/sudoku_problems2/sudoku_p42.dzn
%
% sudoku_p42.dzn
% See http://www.hakank.org/minizinc/sudoku_gcc.mzn
% 
% This problem is problem 42 from
% Gecode's sudoku.cpp
% http://www.gecode.org/gecode-doc-latest/sudoku_8cpp-source.html
% 
x = array2d(1..n, 1..n, [   
% http://janko.at/Raetsel/Sudoku/309.a.htm
% 42
  _, 16,  _,  4,  _,  _,  1, 14,  6,  _,  9,  _,  _,  _,  2,  _,
  _, 13,  _,  _,  4, 16,  _, 12,  _,  _,  _,  _,  _,  9, 15,  7,
  _,  _,  7,  9,  _, 13,  _,  _,  _,  5, 12,  _, 11,  _, 16,  _,
  _, 14, 15, 12,  7,  _,  _,  _, 16,  _,  _, 13,  _,  5,  _,  3,
  5,  _,  _,  _, 12,  _,  _,  _, 14,  6, 11, 15, 13,  _,  _,  _,
  _,  _,  _,  1,  _,  _,  _,  5,  _,  _, 13,  _, 12, 11,  _,  2,
  7,  _, 12, 16,  2,  9,  _, 13,  3,  _,  _,  _, 14,  8,  _, 15,
  9,  4,  _,  _,  _, 14, 16, 11,  _,  2,  _, 12,  _,  _,  _,  _,
  _,  _,  _,  _, 14,  _,  2,  _,  5,  8,  3,  _,  _,  _, 12, 13,
  3,  _, 13,  5,  _,  _,  _,  8,  9,  _, 15, 11,  7, 16,  _, 14,
  4,  _,  1, 14,  _, 15,  _,  _, 10,  _,  _,  _,  3,  _,  _,  _,
  _,  _,  _, 15,  1, 11,  3, 16,  _,  _,  _, 14,  _,  _,  _,  9,
 15,  _,  9,  _,  8,  _,  _,  1,  _,  _,  _, 16,  2,  3, 13,  _,
  _, 10,  _, 11,  _,  4, 13,  _,  _,  _,  7,  _,  5, 15,  _,  _,
  8, 12, 14,  _,  _,  _,  _,  _,  1,  _,  2,  5,  _,  _,  7,  _,
  _,  7,  _,  _,  _,  5,  _,  3, 15,  9,  _,  _, 16,  _,  8,  _
]);

n = 16;


